NAME : morphed20-2-25
COMMENT : Generated using the function morphInstances from the R-package netgen (Bossek,2015) - Number of clusters: 2 Alpha: 0.5
TYPE : TSP
DIMENSION : 20
EDGE_WEIGHT_TYPE : EUC_2D
NODE_COORD_SECTION
1 53.4213250608 2.4960110826
2 67.4646585455 29.5062375137
3 8.493527681 39.4620445886
4 89.3215298885 8.0033672304
5 7.9356742925 52.1997888083
6 86.9852320714 23.2830375404
7 64.9820683387 4.7686599603
8 24.3820500563 69.689563573
9 4.5089346093 65.7683706309
10 17.4658278197 51.2895021677
11 22.6289047743 82.4181965452
12 20.2426555198 59.9783218699
13 88.4172475198 19.9382804823
14 63.75763676 9.7799751785
15 39.2549489647 85.3085392483
16 11.3668273714 53.0685416465
17 35.4852775726 91.1625234453
18 73.2444578522 28.3356909235
19 54.1878842343 14.5439148766
20 73.3398733499 10.0511123557
EOF
